(declare-fun Constructed_Argument_t () String)
(declare-fun CreateAsClass () Bool)
(declare-fun Constructed_Argument_elements_routes_0_t () String)
(declare-fun Constructed_Argument_elements_routes_0 () Real)
(declare-fun Constructed_Argument_elements_mode_1_t () String)
(assert (= Constructed_Argument_t "object"))
(assert CreateAsClass)
(assert (= Constructed_Argument_elements_routes_0_t "number"))
(assert (= Constructed_Argument_elements_routes_0 0.0))
(assert (not (= Constructed_Argument_elements_mode_1_t "string")))
(assert (not (= Constructed_Argument_elements_mode_1_t "number")))
(assert (not (= Constructed_Argument_elements_mode_1_t "boolean")))
(assert (not (= Constructed_Argument_elements_mode_1_t "object")))
(assert (= Constructed_Argument_elements_mode_1_t "array_number"))
(check-sat)
